letting initialStacks = [38, 14, 17, 39, 45, 41, 44, 27, 11, 20, 25, 5, 36, 49, 48, 6, 34, 32, 8, 46, 47, 23, 18, 40, 13, 28, 24, 10, 2, 33, 29, 3, 35, 1, 22, 12, 37, 4, 51, 7, 15, 26, 50, 30, 21, 16, 43, 31, 19, 9, 42]
